Solving original (integer) problem with strategy gdp.bigm...
--- Job model.gms Start 02/14/26 22:50:40 52.2.0 d8e408be LEX-LEG x86 64bit/Linux
--- Applying:
    /package/gams/52.2/gmsprmun.txt
--- GAMS Parameters defined
    Input /local/scratch/a/sgusev/repos/k_means/data/gams_gurobi_gdp.bigm/no_mode/2026-02-14_22-50-40/original/model.gms
    Output /local/scratch/a/sgusev/repos/k_means/data/gams_gurobi_gdp.bigm/no_mode/2026-02-14_22-50-40/original/output.lst
    ScrDir /local/scratch/a/sgusev/repos/k_means/data/gams_gurobi_gdp.bigm/no_mode/2026-02-14_22-50-40/original/225a/
    SysDir /package/gams/52.2/
    CurDir /local/scratch/a/sgusev/repos/k_means/data/gams_gurobi_gdp.bigm/no_mode/2026-02-14_22-50-40/original/
    LogOption 3
    AppendLog 1
Licensee: David Bernal / SECQUOIA Research Group         G251008+0003Ac-GEN
          Purdue University, Davidson School of Chemical EngineeringDCE4838
          225a/gamslice.dat
          5a82958a-fbca-4a23
          node:66820903 mem:995 cores:48 ipport:48773 v:2                  
          Evaluation license: Not for commercial or production use
          The time-limited license stops working on : Jun 30, 2027
System information: 48 physical cores and 995 Gb physical memory detected
GAMS 52.2.0   Copyright (C) 1987-2025 GAMS Development. All rights reserved
--- Starting compilation
--- model.gms(309) 2 Mb
--- $echo File /local/scratch/a/sgusev/repos/k_means/data/gams_gurobi_gdp.bigm/no_mode/2026-02-14_22-50-40/original/gurobi.opt
--- model.gms(536) 2 Mb
--- Starting execution: elapsed 0:00:00.006
--- model.gms(318) 3 Mb
--- Generating MINLP model GAMS_MODEL
--- model.gms(322) 5 Mb
---   74 rows  87 columns  413 non-zeroes
---   952 nl-code  224 nl-non-zeroes
---   56 discrete-columns
--- Range statistics (absolute non-zero finite values)
--- RHS       [min, max] : [ 1.000E+00, 1.379E+01] - Zero values observed as well
--- Bound     [min, max] : [ 1.000E+00, 1.120E+02] - Zero values observed as well
--- Matrix    [min, max] : [ 4.086E-02, 1.379E+01]
--- model.gms(322) 3 Mb
--- Executing GUROBI (Solvelink=5): elapsed 0:00:00.009
Reading parameter(s) from "/local/scratch/a/sgusev/repos/k_means/data/gams_gurobi_gdp.bigm/no_mode/2026-02-14_22-50-40/original/gurobi.opt"
>>  NonConvex 2
>>  Threads 1
>>  MIPGap 1e-06
>>  MIPGapAbs 1e-10
>>  FeasibilityTol 1e-06
>>  OptimalityTol 1e-06
>>  IntFeasTol 1e-05
Finished reading from "/local/scratch/a/sgusev/repos/k_means/data/gams_gurobi_gdp.bigm/no_mode/2026-02-14_22-50-40/original/gurobi.opt"

... GRB_LICENSE_FILE = /local/scratch/a/sgusev/gurobi.lic

    Gurobi           52.2.0 d8e408be Dec 8, 2025           LEG x86 64bit/Linux    

... GAMS/Gurobi Link license.
... GMO Q Extraction (ThreePass): 0.00s

    Gurobi Optimizer version 13.0.0 build v13.0.0rc1 (linux64 - "Oracle Linux Server 9.7")
    
    CPU model: AMD EPYC 7643 48-Core Processor, instruction set [SSE2|AVX|AVX2]
    Thread count: 48 physical cores, 96 logical processors, using up to 1 threads
    
    Non-default parameters:
    TimeLimit  300
    MIPGap  1e-06
    LogToConsole  0
    NonConvex  2
    Threads  1
    
    Optimize a model with 17 rows, 86 columns and 62 nonzeros (Min)
    Model fingerprint: 0x2cf56153
    Model has 14 linear objective coefficients
    Model has 56 quadratic constraints
    Variable types: 30 continuous, 56 integer (0 binary)
    Coefficient statistics:
      Matrix range     [1e+00, 1e+00]
      QMatrix range    [1e+00, 1e+00]
      QLMatrix range   [4e-02, 1e+01]
      Objective range  [1e+00, 1e+00]
      Bounds range     [1e+00, 1e+02]
      RHS range        [1e+00, 1e+00]
      QRHS range       [7e+00, 1e+01]
    Presolve added 56 rows and 4 columns
    Presolve time: 0.00s
    Presolved: 73 rows, 90 columns, 454 nonzeros
    Presolved model has 4 quadratic constraint(s)
    Variable types: 34 continuous, 56 integer (56 binary)
    
    Root relaxation: objective 0.000000e+00, 29 iterations, 0.00 seconds (0.00 work units)
    
        Nodes    |    Current Node    |     Objective Bounds      |     Work
     Expl Unexpl |  Obj  Depth IntInf | Incumbent    BestBd   Gap | It/Node Time
    
    H    0     0                      11.4983439    0.00000   100%     -    0s
    *    0     0               0      11.4983439    0.00000   100%     -    0s
         0     0    0.00000    0   17   11.49834    0.00000   100%     -    0s
         0     0    0.00000    0   29   11.49834    0.00000   100%     -    0s
         0     0    0.00000    0   27   11.49834    0.00000   100%     -    0s
         0     0    0.00000    0   28   11.49834    0.00000   100%     -    0s
         0     0    0.00000    0    -   11.49834    0.00000   100%     -    0s
         0     0    0.00000    0   10   11.49834    0.00000   100%     -    0s
         0     0    0.00000    0   24   11.49834    0.00000   100%     -    0s
         0     0    0.00000    0    -   11.49834    0.00000   100%     -    0s
         0     0    0.00000    0   12   11.49834    0.00000   100%     -    0s
         0     0    0.00000    0   20   11.49834    0.00000   100%     -    0s
         0     0    0.00000    0   34   11.49834    0.00000   100%     -    0s
    H    0     0                      10.8930009    0.00000   100%     -    0s
    *    0     0               0      10.8930009    0.00000   100%     -    0s
         0     0    0.00000    0   11   10.89300    0.00000   100%     -    0s
         0     0    0.00000    0   25   10.89300    0.00000   100%     -    0s
         0     0    0.00000    0   14   10.89300    0.00000   100%     -    0s
         0     0    0.00000    0   22   10.89300    0.00000   100%     -    0s
         0     0    0.00000    0   18   10.89300    0.00000   100%     -    0s
         0     0    0.00000    0   18   10.89300    0.00000   100%     -    0s
         0     0    0.00000    0    4   10.89300    0.00000   100%     -    0s
         0     0    0.00000    0   14   10.89300    0.00000   100%     -    0s
         0     0    0.00000    0   14   10.89300    0.00000   100%     -    0s
         0     0    0.00000    0   16   10.89300    0.00000   100%     -    0s
         0     0    0.00000    0   10   10.89300    0.00000   100%     -    0s
         0     0    0.00000    0   22   10.89300    0.00000   100%     -    0s
         0     0    0.00000    0    8   10.89300    0.00000   100%     -    0s
         0     0    0.00000    0   16   10.89300    0.00000   100%     -    0s
         0     0    0.00000    0    6   10.89300    0.00000   100%     -    0s
         0     0    0.00000    0   16   10.89300    0.00000   100%     -    0s
         0     0    0.00000    0    8   10.89300    0.00000   100%     -    0s
         0     0    0.00000    0   18   10.89300    0.00000   100%     -    0s
         0     0    0.00000    0   16   10.89300    0.00000   100%     -    0s
         0     0    0.00000    0   22   10.89300    0.00000   100%     -    0s
         0     0    0.00000    0    6   10.89300    0.00000   100%     -    0s
         0     0    0.00000    0   18   10.89300    0.00000   100%     -    0s
         0     0    0.00000    0    2   10.89300    0.00000   100%     -    0s
         0     0    0.00000    0   16   10.89300    0.00000   100%     -    0s
         0     0    0.00000    0    6   10.89300    0.00000   100%     -    0s
         0     0    0.00000    0   20   10.89300    0.00000   100%     -    0s
         0     0    0.00000    0    8   10.89300    0.00000   100%     -    0s
         0     0    0.00000    0   18   10.89300    0.00000   100%     -    0s
         0     0    0.00000    0   12   10.89300    0.00000   100%     -    0s
         0     0    0.00000    0   18   10.89300    0.00000   100%     -    0s
         0     0    0.00000    0    2   10.89300    0.00000   100%     -    0s
         0     0    0.00000    0   16   10.89300    0.00000   100%     -    0s
         0     0    0.00000    0    8   10.89300    0.00000   100%     -    0s
         0     0    0.00000    0   22   10.89300    0.00000   100%     -    0s
         0     0    0.00000    0    6   10.89300    0.00000   100%     -    0s
         0     0    0.00000    0   18   10.89300    0.00000   100%     -    0s
         0     0    0.00000    0    8   10.89300    0.00000   100%     -    0s
         0     0    0.00000    0   21   10.89300    0.00000   100%     -    0s
         0     0    0.00000    0   18   10.89300    0.00000   100%     -    0s
         0     0    0.00000    0   24   10.89300    0.00000   100%     -    0s
    H    0     0                       9.0574654    0.00000   100%     -    0s
    *    0     0               0       9.0574654    0.00000   100%     -    0s
         0     0    0.00000    0   16    9.05747    0.00000   100%     -    0s
         0     0    0.00000    0   26    9.05747    0.00000   100%     -    0s
         0     0    0.00000    0   10    9.05747    0.00000   100%     -    0s
         0     0    0.00000    0   22    9.05747    0.00000   100%     -    0s
         0     0    0.00000    0   10    9.05747    0.00000   100%     -    0s
         0     0    0.00000    0   22    9.05747    0.00000   100%     -    0s
         0     0    0.00000    0   10    9.05747    0.00000   100%     -    0s
         0     0    0.00000    0   20    9.05747    0.00000   100%     -    0s
         0     0    0.00000    0   10    9.05747    0.00000   100%     -    0s
         0     0    0.00000    0   18    9.05747    0.00000   100%     -    0s
         0     0    0.00000    0   18    9.05747    0.00000   100%     -    0s
         0     0    0.00000    0   18    9.05747    0.00000   100%     -    0s
         0     0    0.00000    0    4    9.05747    0.00000   100%     -    0s
         0     0    0.00000    0   20    9.05747    0.00000   100%     -    0s
         0     0    0.00000    0   14    9.05747    0.00000   100%     -    0s
         0     0    0.00000    0   19    9.05747    0.00000   100%     -    0s
         0     0    0.00000    0   19    9.05747    0.00000   100%     -    0s
         0     0    0.00000    0   28    9.05747    0.00000   100%     -    0s
         0     0    0.00000    0   10    9.05747    0.00000   100%     -    0s
         0     0    0.00000    0   20    9.05747    0.00000   100%     -    0s
         0     0    0.00000    0   20    9.05747    0.00000   100%     -    0s
         0     0    0.00000    0   20    9.05747    0.00000   100%     -    0s
         0     0    0.00000    0   12    9.05747    0.00000   100%     -    0s
         0     0    0.00000    0   24    9.05747    0.00000   100%     -    0s
         0     0    0.00000    0   22    9.05747    0.00000   100%     -    0s
         0     0    0.00000    0   20    9.05747    0.00000   100%     -    0s
         0     0    0.00000    0    2    9.05747    0.00000   100%     -    0s
         0     0    0.00000    0   16    9.05747    0.00000   100%     -    0s
         0     0    0.00000    0   12    9.05747    0.00000   100%     -    0s
         0     0    0.00000    0   20    9.05747    0.00000   100%     -    0s
         0     0    0.00000    0    4    9.05747    0.00000   100%     -    0s
         0     0    0.00000    0   18    9.05747    0.00000   100%     -    0s
         0     0    0.00000    0   18    9.05747    0.00000   100%     -    0s
         0     0    0.00000    0   20    9.05747    0.00000   100%     -    0s
         0     0    0.00000    0   10    9.05747    0.00000   100%     -    0s
         0     0    0.00000    0   18    9.05747    0.00000   100%     -    0s
         0     0    0.00000    0    6    9.05747    0.00000   100%     -    0s
         0     0    0.00000    0   22    9.05747    0.00000   100%     -    0s
         0     0    0.00000    0    6    9.05747    0.00000   100%     -    0s
         0     0    0.00000    0   22    9.05747    0.00000   100%     -    0s
         0     0    0.00000    0   16    9.05747    0.00000   100%     -    0s
         0     0    0.00000    0   18    9.05747    0.00000   100%     -    0s
         0     0    0.00000    0   14    9.05747    0.00000   100%     -    0s
         0     0    0.00000    0   20    9.05747    0.00000   100%     -    0s
         0     0    0.00000    0   10    9.05747    0.00000   100%     -    0s
         0     0    0.00000    0   18    9.05747    0.00000   100%     -    0s
         0     0    0.00000    0    8    9.05747    0.00000   100%     -    0s
         0     0    0.00000    0   26    9.05747    0.00000   100%     -    0s
         0     0    0.00000    0    4    9.05747    0.00000   100%     -    0s
         0     0    0.00000    0   22    9.05747    0.00000   100%     -    0s
         0     0    0.00000    0    8    9.05747    0.00000   100%     -    0s
         0     0    0.00000    0   14    9.05747    0.00000   100%     -    0s
         0     0    0.00000    0   12    9.05747    0.00000   100%     -    0s
         0     0    0.00000    0   24    9.05747    0.00000   100%     -    0s
         0     0    0.00000    0    6    9.05747    0.00000   100%     -    0s
         0     0    0.00000    0   20    9.05747    0.00000   100%     -    0s
         0     0    0.00000    0    4    9.05747    0.00000   100%     -    0s
         0     0    0.00000    0   16    9.05747    0.00000   100%     -    0s
         0     0    0.00000    0   12    9.05747    0.00000   100%     -    0s
         0     0    0.00000    0   24    9.05747    0.00000   100%     -    0s
         0     0    0.00000    0   14    9.05747    0.00000   100%     -    0s
         0     0    0.00000    0   20    9.05747    0.00000   100%     -    0s
         0     0    0.00000    0   16    9.05747    0.00000   100%     -    0s
         0     0    0.00000    0   24    9.05747    0.00000   100%     -    0s
         0     0    0.00000    0   14    9.05747    0.00000   100%     -    0s
         0     0    0.00000    0   20    9.05747    0.00000   100%     -    0s
         0     0    0.00000    0   18    9.05747    0.00000   100%     -    0s
         0     0    0.00000    0   24    9.05747    0.00000   100%     -    0s
         0     0    0.00000    0   14    9.05747    0.00000   100%     -    0s
         0     0    0.00000    0   20    9.05747    0.00000   100%     -    0s
         0     0    0.00000    0   14    9.05747    0.00000   100%     -    0s
         0     0    0.00000    0   20    9.05747    0.00000   100%     -    0s
         0     0    0.00000    0    8    9.05747    0.00000   100%     -    0s
         0     0    0.00000    0   20    9.05747    0.00000   100%     -    0s
         0     0    0.00000    0   12    9.05747    0.00000   100%     -    0s
         0     0    0.00000    0   16    9.05747    0.00000   100%     -    0s
         0     0    0.00000    0    6    9.05747    0.00000   100%     -    0s
         0     0    0.00000    0   16    9.05747    0.00000   100%     -    0s
         0     0    0.00000    0   16    9.05747    0.00000   100%     -    0s
         0     0    0.00000    0   20    9.05747    0.00000   100%     -    0s
         0     0    0.00000    0   10    9.05747    0.00000   100%     -    0s
         0     0    0.00000    0   20    9.05747    0.00000   100%     -    0s
         0     0    0.00000    0   10    9.05747    0.00000   100%     -    0s
         0     0    0.00000    0   24    9.05747    0.00000   100%     -    0s
         0     0    0.00000    0    8    9.05747    0.00000   100%     -    0s
         0     0    0.00000    0   16    9.05747    0.00000   100%     -    0s
         0     0    0.00000    0   14    9.05747    0.00000   100%     -    0s
         0     0    0.00000    0   18    9.05747    0.00000   100%     -    0s
         0     0    0.00000    0   18    9.05747    0.00000   100%     -    0s
         0     0    0.00000    0   22    9.05747    0.00000   100%     -    0s
         0     0    0.00000    0    8    9.05747    0.00000   100%     -    0s
         0     0    0.00000    0   18    9.05747    0.00000   100%     -    0s
         0     0    0.00000    0   10    9.05747    0.00000   100%     -    0s
         0     0    0.00000    0   18    9.05747    0.00000   100%     -    0s
         0     0    0.00000    0   14    9.05747    0.00000   100%     -    0s
         0     0    0.00000    0   16    9.05747    0.00000   100%     -    0s
         0     0    0.00000    0    4    9.05747    0.00000   100%     -    0s
         0     0    0.00000    0   14    9.05747    0.00000   100%     -    0s
         0     0    0.00000    0   14    9.05747    0.00000   100%     -    0s
         0     0    0.00000    0   18    9.05747    0.00000   100%     -    0s
         0     0    0.00000    0   10    9.05747    0.00000   100%     -    0s
         0     0    0.00000    0   18    9.05747    0.00000   100%     -    0s
         0     0    0.00000    0   18    9.05747    0.00000   100%     -    0s
         0     0    0.00000    0   26    9.05747    0.00000   100%     -    0s
         0     0    0.00000    0   16    9.05747    0.00000   100%     -    0s
         0     0    0.00000    0   24    9.05747    0.00000   100%     -    0s
         0     0    0.00000    0    6    9.05747    0.00000   100%     -    0s
         0     0    0.00000    0   22    9.05747    0.00000   100%     -    0s
         0     0    0.00000    0   12    9.05747    0.00000   100%     -    0s
         0     0    0.00000    0   20    9.05747    0.00000   100%     -    0s
         0     0    0.00000    0    8    9.05747    0.00000   100%     -    0s
         0     0    0.00000    0   12    9.05747    0.00000   100%     -    0s
         0     0    0.00000    0   12    9.05747    0.00000   100%     -    0s
         0     0    0.00000    0   20    9.05747    0.00000   100%     -    0s
         0     0    0.00000    0   12    9.05747    0.00000   100%     -    0s
         0     0    0.00000    0   22    9.05747    0.00000   100%     -    0s
         0     0    0.00000    0    4    9.05747    0.00000   100%     -    0s
         0     0    0.00000    0   14    9.05747    0.00000   100%     -    0s
         0     0    0.00000    0   12    9.05747    0.00000   100%     -    0s
         0     0    0.00000    0   24    9.05747    0.00000   100%     -    0s
         0     0    0.00000    0   18    9.05747    0.00000   100%     -    0s
         0     0    0.00000    0   21    9.05747    0.00000   100%     -    0s
         0     0    0.00000    0    6    9.05747    0.00000   100%     -    0s
         0     0    0.00000    0   14    9.05747    0.00000   100%     -    0s
         0     0    0.00000    0   14    9.05747    0.00000   100%     -    0s
         0     0    0.00000    0   16    9.05747    0.00000   100%     -    0s
         0     0    0.00000    0    6    9.05747    0.00000   100%     -    0s
         0     0    0.00000    0   18    9.05747    0.00000   100%     -    0s
         0     0    0.00000    0    6    9.05747    0.00000   100%     -    0s
         0     0    0.00000    0   14    9.05747    0.00000   100%     -    0s
         0     0    0.00000    0   12    9.05747    0.00000   100%     -    0s
         0     0    0.00000    0   20    9.05747    0.00000   100%     -    0s
         0     0    0.00000    0   20    9.05747    0.00000   100%     -    0s
         0     0    0.00000    0   22    9.05747    0.00000   100%     -    0s
         0     0    0.00000    0   12    9.05747    0.00000   100%     -    0s
         0     0    0.00000    0   20    9.05747    0.00000   100%     -    0s
         0     0    0.00000    0   12    9.05747    0.00000   100%     -    0s
         0     0    0.00000    0   22    9.05747    0.00000   100%     -    0s
         0     0    0.00000    0    6    9.05747    0.00000   100%     -    0s
         0     0    0.00000    0   12    9.05747    0.00000   100%     -    0s
         0     0    0.00000    0   10    9.05747    0.00000   100%     -    0s
         0     0    0.00000    0   20    9.05747    0.00000   100%     -    0s
         0     0    0.00000    0   10    9.05747    0.00000   100%     -    0s
         0     0    0.00000    0   18    9.05747    0.00000   100%     -    0s
         0     0    0.00000    0    8    9.05747    0.00000   100%     -    0s
         0     0    0.00000    0   24    9.05747    0.00000   100%     -    0s
         0     0    0.00000    0   14    9.05747    0.00000   100%     -    0s
         0     0    0.00000    0   16    9.05747    0.00000   100%     -    0s
         0     0    0.00000    0   12    9.05747    0.00000   100%     -    0s
         0     0    0.00000    0   20    9.05747    0.00000   100%     -    0s
         0     0    0.00000    0   14    9.05747    0.00000   100%     -    0s
         0     0    0.00000    0   18    9.05747    0.00000   100%     -    0s
         0     0    0.00000    0   18    9.05747    0.00000   100%     -    0s
         0     2    0.00000    0   16    9.05747    0.00000   100%     -    0s
    H   52    42                       9.0574654    0.00000   100%   8.6    0s
    H  157   123                       9.0574654    0.00000   100%   8.7    0s
    H  261   191                       9.0574654    0.00000   100%   8.4    0s
    H  313   220                       9.0574654    0.00000   100%   8.4    0s
    H  314   222                       9.0574643    0.00000   100%   8.3    0s
    H  324   217                       9.0574643    0.00000   100%   8.1    0s
    H  427   270                       9.0574643    0.00000   100%  45.7    1s
    H  429   255                       8.7998966    0.00000   100%  45.5    1s
    H  430   242                       8.7998966    0.00000   100%  45.4    1s
    H  431   228                       8.7998966    0.00000   100%  45.4    1s
    H  432   216                       8.7998966    0.00000   100%  45.3    1s
    H  433   204                       8.7967775    0.00000   100%  45.2    1s
    H  440   197                       8.7967775    0.00000   100%  44.7    1s
    H  456   196                       8.7967775    0.00000   100%  43.4    1s
    H  483   204                       8.7759900    0.00000   100%  41.5    1s
    H  484   195                       8.7759900    0.00000   100%  41.5    1s
    H  485   184                       8.7759900    0.00000   100%  41.4    1s
    H  486   176                       8.7759900    0.00000   100%  41.3    1s
    H  487   167                       8.7759900    0.00000   100%  41.3    1s
    H  489   160                       8.7759900    0.00000   100%  41.1    1s
    H  491   153                       8.5954294    0.00000   100%  41.0    1s
    H  493   147                       8.5954294    0.00000   100%  40.9    1s
    H  496   138                       8.0328692    0.00000   100%  40.7    1s
    H  496   132                       8.0328692    0.00000   100%  40.7    1s
    H  499   122                       8.0328692    0.00000   100%  40.5    1s
    H  500   116                       8.0328691    0.00000   100%  40.4    1s
    H  501   111                       8.0328691    0.00000   100%  40.4    1s
    H  502   107                       8.0328691    0.00000   100%  40.3    1s
    H  510   107                       8.0328691    0.00000   100%  39.9    1s
    H 1344   679                       7.6059998    0.00000   100%  20.1    1s
    H 1348   675                       7.6059998    0.00000   100%  20.1    1s
    H 1351   678                       7.6059998    0.00000   100%  20.0    1s
    H 1366   687                       7.6059998    0.00000   100%  19.9    1s
    H 1393   699                       7.6059998    0.00000   100%  19.6    1s
    H 1406   712                       7.6059998    0.00000   100%  19.5    1s
    H 1597   819                       7.6059998    0.00000   100%  17.9    1s
     21482  9327     cutoff   35         7.60600    1.27358  83.3%   7.9    5s
    H39901 14889                       7.6030480    1.95844  74.2%   7.6    7s
    H42253 15362                       7.4243950    2.03368  72.6%   7.6    8s
    H46697 16383                       7.3212232    2.17345  70.3%   7.5    9s
     51625 17691    5.15223   28   12    7.32122    2.26687  69.0%   7.5   10s
    H76817 23333                       7.3212232    2.78132  62.0%   7.5   14s
    H76817 23333                       7.3212231    2.78132  62.0%   7.5   14s
    H76817 23333                       7.3212231    2.78132  62.0%   7.5   14s
    H76870 23343                       7.3212231    2.78151  62.0%   7.5   14s
    H76925 23350                       7.3212231    2.78176  62.0%   7.5   14s
     78031 23629     cutoff   36         7.32122    2.80526  61.7%   7.5   15s
     104281 27812    5.96600   28   14    7.32122    3.23078  55.9%   7.5   20s
     130269 31212    7.10003   39    6    7.32122    3.57759  51.1%   7.5   25s
     154268 34022    6.29437   29   14    7.32122    3.87601  47.1%   7.5   30s
     179000 35889    5.05417   29   14    7.32122    4.14432  43.4%   7.5   35s
     203293 36914    7.12205   26   14    7.32122    4.39226  40.0%   7.4   40s
     225568 37467    6.21589   30   15    7.32122    4.60134  37.2%   7.4   45s
     249026 37364    4.90915   21   16    7.32122    4.82501  34.1%   7.4   50s
     272329 36550    7.08734   37   12    7.32122    5.05272  31.0%   7.4   55s
     294784 34856     cutoff   34         7.32122    5.26921  28.0%   7.4   60s
    H296136 34703                       7.3212226    5.28424  27.8%   7.4   60s
    H298386 34446                       7.3212226    5.30992  27.5%   7.4   61s
    H305562 33612                       7.3212226    5.38812  26.4%   7.4   63s
     313679 32449    5.90390   32   15    7.32122    5.48334  25.1%   7.5   65s
     334977 28794    6.98888   29   14    7.32122    5.73133  21.7%   7.5   70s
     355840 23623    6.42630   31   10    7.32122    6.02423  17.7%   7.5   75s
     376282 16647    6.59544   37   10    7.32122    6.35439  13.2%   7.5   80s
     396277  5918     cutoff   31         7.32122    6.88575  5.95%   7.5   85s
    
    Cutting planes:
      Flow cover: 1
    
    Explored 404139 nodes (3022310 simplex iterations) in 87.14 seconds (94.20 work units)
    Thread count was 1 (of 96 available processors)
    
    Solution count 10: 7.32122 7.32122 7.42439 ... 10.893
    No other solutions better than 7.32122
    
    Optimal solution found (tolerance 1.00e-06)
    Best objective 7.321222453560e+00, best bound 7.321222453560e+00, gap 0.0000%
    
    User-callback calls 404289, time in user-callback 0.02 sec

... Solving fixed model...

    Gurobi Optimizer version 13.0.0 build v13.0.0rc1 (linux64 - "Oracle Linux Server 9.7")
    
    CPU model: AMD EPYC 7643 48-Core Processor, instruction set [SSE2|AVX|AVX2]
    Thread count: 48 physical cores, 96 logical processors, using up to 1 threads
    
    Non-default parameters:
    TimeLimit  300
    MIPGap  1e-06
    LogToConsole  0
    NonConvex  2
    Threads  1
    
    Optimize a model with 17 rows, 86 columns and 62 nonzeros (Min)
    Model fingerprint: 0x2f0b1352
    Model has 14 linear objective coefficients
    Model has 56 quadratic constraints
    Coefficient statistics:
      Matrix range     [1e+00, 1e+00]
      QMatrix range    [1e+00, 1e+00]
      QLMatrix range   [4e-02, 1e+01]
      Objective range  [1e+00, 1e+00]
      Bounds range     [1e+00, 1e+02]
      RHS range        [1e+00, 1e+00]
      QRHS range       [7e+00, 1e+01]
    Presolve removed 14 rows and 56 columns
    Presolve time: 0.00s
    Presolved: 84 rows, 98 columns, 211 nonzeros
    Presolved model has 14 second-order cone constraints
    Ordering time: 0.00s
    
    Barrier statistics:
     AA' NZ     : 8.130e+02
     Factor NZ  : 1.074e+03
     Factor Ops : 1.860e+04 (less than 1 second per iteration)
     Threads    : 1
    
                      Objective                Residual
    Iter       Primal          Dual         Primal    Dual     Compl     Time
       0   8.68338894e+02 -5.99783432e+02  1.31e+01 4.70e+00  1.74e+01     0s
       1   1.00286006e+02 -1.28922112e+02  2.96e-01 5.17e-06  1.64e+00     0s
       2   1.40598255e+01 -3.20270962e+01  1.27e-02 1.42e-06  3.21e-01     0s
       3   9.19640953e+00  1.46048950e+00  1.40e-08 1.45e-07  5.41e-02     0s
       4   7.87319583e+00  6.11171186e+00  1.66e-09 1.22e-08  1.23e-02     0s
       5   7.59520113e+00  6.84421177e+00  3.21e-10 4.88e-09  5.25e-03     0s
       6   7.33913190e+00  7.23817579e+00  1.27e-11 7.85e-10  7.06e-04     0s
       7   7.32150103e+00  7.31851254e+00  1.94e-13 2.76e-11  2.09e-05     0s
       8   7.32123457e+00  7.32115380e+00  6.29e-12 6.55e-13  5.65e-07     0s
       9   7.32122341e+00  7.32121947e+00  2.34e-10 3.02e-12  2.76e-08     0s
    
    Barrier solved model in 9 iterations and 0.00 seconds (0.00 work units)
    Optimal objective 7.32122341e+00
    
    
    User-callback calls 0, time in user-callback 0.00 sec
    Warning: to get QCP duals, please set parameter QCPDual to 1

--- Reading solution for model GAMS_MODEL
***
*** Solver did not provide marginals for model GAMS_MODEL
***
--- Executing after solve: elapsed 0:01:27.179
--- model.gms(325) 3 Mb
--- model.gms(536) 5 Mb
--- Putfile results /local/scratch/a/sgusev/repos/k_means/data/gams_gurobi_gdp.bigm/no_mode/2026-02-14_22-50-40/original/results.dat
--- Putfile statresults /local/scratch/a/sgusev/repos/k_means/data/gams_gurobi_gdp.bigm/no_mode/2026-02-14_22-50-40/original/resultsstat.dat
*** Status: Normal completion
--- Job model.gms Stop 02/14/26 22:52:07 elapsed 0:01:27.180
Original problem solved. Time taken: 87.74268174171448 seconds
Original objective value: 7.321223411952359
